qbf_easy_train/easy_5585_SAT.qdimacs
p cnf 27 71
a 19 10 11 0
e 1 2 3 4 5 6 7 8 9 12 13 14 15 16 17 18 20 21 22 23 24 25 26 27 0
3 -1 0
3 2 0
1 -2 -3 0
-4 -1 0
-4 3 0
1 -3 4 0
6 7 -8 0
-6 -7 -8 0
6 -7 8 0
-6 7 8 0
-5 -8 -9 0
5 8 -9 0
-5 8 9 0
5 -8 9 0
6 10 -11 0
-6 -10 -11 0
6 -10 11 0
-6 10 11 0
-9 -11 -12 0
9 11 -12 0
-9 11 12 0
9 -11 12 0
7 -1 -14 0
-7 1 -14 0
7 1 14 0
-7 -1 14 0
-15 -14 0
-15 7 0
14 -7 15 0
-16 13 0
-16 -15 0
-13 15 16 0
12 -16 -17 0
-12 16 -17 0
12 16 17 0
-12 -16 17 0
-18 1 0
-18 1 0
-1 18 0
19 -18 0
19 -8 0
18 8 -19 0
5 -20 -21 0
-5 20 -21 0
5 20 21 0
-5 -20 21 0
22 21 0
22 8 0
-21 -8 -22 0
-23 -19 0
-23 22 0
19 -22 23 0
-24 -20 0
-24 -8 0
20 8 24 0
25 -23 0
25 24 0
23 -24 -25 0
26 -17 0
26 25 0
17 -25 -26 0
27 4 0
27 26 0
-4 -26 -27 0
-10 -15 -17 -24 26 -5 0
19 26 2 0
-13 5 -21 -8 20 0
-1 -20 26 -11 -4 0
10 -13 -4 1 -25 11 0
-23 15 -18 27 14 -7 0
27 0
