sat_easy_train/easy_5585_SAT.dimacs
p cnf 117 389
-3 -1 0
-3 -2 0
1 2 3 0
4 -1 0
4 2 0
1 -2 -4 0
-6 -4 0
-6 5 0
4 -5 6 0
9 -7 0
9 8 0
7 -8 -9 0
10 -9 0
10 1 0
9 -1 -10 0
-4 -10 -11 0
4 10 -11 0
-4 10 11 0
4 -10 11 0
-3 8 -12 0
3 -8 -12 0
-3 -8 12 0
3 8 12 0
-13 -12 0
-13 -7 0
12 7 13 0
15 14 0
15 4 0
-14 -4 -15 0
-17 15 0
-17 -16 0
-15 16 17 0
-20 -14 0
-20 19 0
14 -19 20 0
21 18 0
21 -20 0
-18 20 -21 0
-17 -21 -22 0
17 21 -22 0
-17 21 22 0
17 -21 22 0
-23 13 0
-23 22 0
-13 -22 23 0
-24 -11 0
-24 -23 0
11 23 24 0
-6 24 -25 0
6 -24 -25 0
-6 -24 25 0
6 24 25 0
2 3 -26 0
-2 -3 -26 0
2 -3 26 0
-2 3 26 0
-27 25 0
-27 -26 0
-25 26 27 0
-28 3 0
-28 27 0
-3 -27 28 0
12 3 -29 0
-12 -3 -29 0
12 -3 29 0
-12 3 29 0
-12 -29 -30 0
12 29 -30 0
-12 29 30 0
12 -29 30 0
30 -20 -31 0
-30 20 -31 0
30 20 31 0
-30 -20 31 0
-31 -6 -32 0
31 6 -32 0
-31 6 32 0
31 -6 32 0
33 28 0
33 -32 0
-28 32 -33 0
-35 -1 0
-35 34 0
1 -34 35 0
-4 35 -36 0
4 -35 -36 0
-4 -35 36 0
4 35 36 0
-37 -4 0
-37 36 0
4 -36 37 0
-37 -31 -38 0
37 31 -38 0
-37 31 38 0
37 -31 38 0
41 39 0
41 -40 0
-39 40 -41 0
-42 2 0
-42 30 0
-2 -30 42 0
43 -41 0
43 42 0
41 -42 -43 0
44 38 0
44 -43 0
-38 43 -44 0
45 33 0
45 -44 0
-33 44 -45 0
-17 -29 -46 0
17 29 -46 0
-17 29 46 0
17 -29 46 0
47 -3 -48 0
-47 3 -48 0
47 3 48 0
-47 -3 48 0
-46 48 -49 0
46 -48 -49 0
-46 -48 49 0
46 48 49 0
50 5 0
50 13 0
-5 -13 -50 0
51 50 0
51 -18 0
-50 18 -51 0
-52 18 0
-52 -51 0
-18 51 52 0
-53 49 0
-53 52 0
-49 -52 53 0
54 45 0
54 53 0
-45 -53 -54 0
55 -1 0
55 -47 0
1 47 -55 0
55 8 -56 0
-55 -8 -56 0
55 -8 56 0
-55 8 56 0
-57 -56 0
-57 17 0
56 -17 57 0
-58 57 0
-58 29 0
-57 -29 58 0
-59 58 0
-59 57 0
-58 -57 59 0
-61 -60 0
-61 16 0
60 -16 61 0
62 61 0
62 50 0
-61 -50 -62 0
-63 62 0
-63 -5 0
-62 5 63 0
59 -63 -64 0
-59 63 -64 0
59 63 64 0
-59 -63 64 0
-17 7 -65 0
17 -7 -65 0
-17 -7 65 0
17 7 65 0
67 65 0
67 66 0
-65 -66 -67 0
68 -37 0
68 67 0
37 -67 -68 0
69 -64 0
69 -68 0
64 68 -69 0
-70 54 0
-70 -69 0
-54 69 70 0
-71 -30 0
-71 7 0
30 -7 71 0
2 -71 -72 0
-2 71 -72 0
2 71 72 0
-2 -71 72 0
73 5 0
73 -55 0
-5 55 -73 0
74 72 0
74 -73 0
-72 73 -74 0
75 14 0
75 -18 0
-14 18 -75 0
76 -31 0
76 75 0
31 -75 -76 0
77 -76 0
77 24 0
76 -24 -77 0
-77 -13 -78 0
77 13 -78 0
-77 13 78 0
77 -13 78 0
-79 -20 0
-79 -7 0
20 7 79 0
79 -50 -80 0
-79 50 -80 0
79 50 80 0
-79 -50 80 0
-81 78 0
-81 80 0
-78 -80 81 0
74 -81 -82 0
-74 81 -82 0
74 81 82 0
-74 -81 82 0
-70 82 -83 0
70 -82 -83 0
-70 -82 83 0
70 82 83 0
-1 37 -84 0
1 -37 -84 0
-1 -37 84 0
1 37 84 0
85 84 0
85 -14 0
-84 14 -85 0
-86 -55 0
-86 85 0
55 -85 86 0
57 -80 -87 0
-57 80 -87 0
57 80 87 0
-57 -80 87 0
-88 87 0
-88 -57 0
-87 57 88 0
23 88 -89 0
-23 -88 -89 0
23 -88 89 0
-23 88 89 0
90 -86 0
90 89 0
86 -89 -90 0
92 -5 0
92 91 0
5 -91 -92 0
-93 92 0
-93 46 0
-92 -46 93 0
90 -93 -94 0
-90 93 -94 0
90 93 94 0
-90 -93 94 0
-95 -1 0
-95 -19 0
1 19 95 0
96 12 0
96 13 0
-12 -13 -96 0
-97 -29 0
-97 -96 0
29 96 97 0
10 -97 -98 0
-10 97 -98 0
10 97 98 0
-10 -97 98 0
-95 -98 -99 0
95 98 -99 0
-95 98 99 0
95 -98 99 0
-100 -92 0
-100 -66 0
92 66 100 0
-101 100 0
-101 84 0
-100 -84 101 0
-102 99 0
-102 -101 0
-99 101 102 0
103 -58 0
103 -39 0
58 39 -103 0
104 34 0
104 58 0
-34 -58 -104 0
-105 7 0
-105 11 0
-7 -11 105 0
105 58 -106 0
-105 -58 -106 0
105 -58 106 0
-105 58 106 0
107 -104 0
107 106 0
104 -106 -107 0
-108 103 0
-108 107 0
-103 -107 108 0
19 20 -109 0
-19 -20 -109 0
19 -20 109 0
-19 20 109 0
-110 2 0
-110 60 0
-2 -60 110 0
109 110 -111 0
-109 -110 -111 0
109 -110 111 0
-109 110 111 0
-112 18 0
-112 -50 0
-18 50 112 0
-111 112 -113 0
111 -112 -113 0
-111 -112 113 0
111 112 113 0
-114 -108 0
-114 113 0
108 -113 114 0
-115 -102 0
-115 114 0
102 -114 115 0
-94 115 -116 0
94 -115 -116 0
-94 -115 116 0
94 115 116 0
-83 -116 -117 0
83 116 -117 0
-83 116 117 0
83 -116 117 0
98 59 -42 0
94 53 67 44 -117 38 0
-84 -111 104 -60 -49 0
56 -5 -8 31 -28 29 0
28 47 -84 0
68 -1 10 0
90 -61 0
-14 -46 -25 82 0
-19 2 -23 0
-16 38 -104 0
15 24 0
67 -116 -55 -42 8 99 0
-68 -50 -58 -5 12 0
29 -86 1 0
-111 11 -71 -99 0
3 -90 98 0
103 37 0
-81 55 -93 -11 71 0
58 67 -54 -105 -83 -85 0
-17 28 111 -71 72 14 0
56 17 0
16 -103 -45 0
-71 -50 19 -70 -52 -33 0
43 -82 0
-83 107 -70 55 -102 -15 0
107 -117 -38 67 -77 -93 0
-31 -35 104 0
64 -30 0
-43 81 18 -2 -32 0
-34 -55 2 -96 68 0
-21 96 -57 13 -49 0
-20 55 -58 -72 -86 0
75 87 -89 -8 0
65 -52 0
-30 -104 -27 0
-81 -94 0
-116 -38 -58 -37 57 0
93 -75 91 61 -108 -80 0
44 -53 72 92 4 0
30 -89 -32 -79 -47 -86 0
-73 -40 -113 114 -59 0
-23 -30 -22 64 -100 0
-7 -108 -52 0
88 -56 0
32 103 0
-15 -100 -44 110 78 0
-35 -86 71 0
64 -71 -31 24 -42 78 0
101 -50 -82 -74 17 -86 0
26 106 -115 -97 0
-65 20 46 0
117 0
